
%FILE DATA:	Soccer Computational Problem for MiniZinc Models	%
%AUTHOR:	Jack Wall	%
%CONTACT:  	116397063@umail.ucc.ie			%
%LAST UPDATE:	03/02/2020, 19:05:33						%
%DESCRIPTION: 	96 games played with 36 games left				%


n=12; %number of teams

%Games to play
games=[|2,5|6,3|7,11|2,1|4,2|10,12|8,6|4,10|7,4|10,4|7,5|4,11|11,3|4,8|4,12|6,4|8,7|6,12|8,10|8,3|8,2|12,8|5,4|12,4|12,3|2,9|3,5|5,3|3,1|7,2|1,7|2,3|3,7|9,5|2,6|2,10|];

%Initial points
iPoints=[23,17,13,24,18,18,16,26,32,16,24,25];

%POSITION CONSTRAINTS
% [|teamID, operator, position|...]
% operators index:
%  1 for =  operator
%  2 for >  operator
%  3 for >= operator
%  4 for <  operator
%  5 for <= operator
positionConstraints=[|12,1,1|8,4,3|9,4,4|4,1,4|1,3,5|];